db/data/307231783328694237602082294721899924851.z3.out
sat
-------------------
28.984471126
